# Instance C205 - 90 dynamic requests - 10 static requests
Dyn   Stat
90    10
ID    RD
5     -1
20    -1
22    -1
24    -1
62    -1
63    -1
67    -1
75    -1
91    -1
95    -1
1     177
2     62
3     990
4     486
6     121
7     921
8     2372
9     2168
10    863
11    2076
12    1469
13    865
14    1152
15    2134
16    924
17    1373
18    643
19    1426
21    1080
23    1112
25    597
26    1221
27    74
28    506
29    4
30    12
31    559
32    318
33    298
34    972
35    288
36    1067
37    637
38    942
39    155
40    1038
41    2622
42    718
43    759
44    261
45    617
46    1657
47    569
48    2096
49    651
50    1483
51    1951
52    1713
53    383
54    1065
55    690
56    285
57    959
58    224
59    1073
60    1008
61    151
64    278
65    752
66    287
68    333
69    38
70    787
71    1635
72    223
73    1745
74    12
76    665
77    2599
78    2170
79    702
80    152
81    1967
82    732
83    1150
84    1264
85    742
86    1465
87    1246
88    396
89    283
90    234
92    28
93    1
94    155
96    2767
97    21
98    170
99    171
100   405
